(set-option :produce-models true); benchmark generated from python API
(set-info :status unknown)
(declare-fun l_0_0_9 () Real)
(declare-fun l_0_0_8 () Real)
(declare-fun l_0_0_3 () Real)
(declare-fun l_0_0_2 () Real)
(declare-fun l_0_0_1 () Real)
(declare-fun _a_0_ () Real)
(declare-fun l_0_0_6 () Real)
(declare-fun l_0_0_5 () Real)
(declare-fun l_0_0_4 () Real)
(declare-fun l_0_0_12 () Real)
(declare-fun l_0_0_11 () Real)
(declare-fun l_0_0_10 () Real)
(declare-fun _a_1_ () Real)
(declare-fun l_0_0_7 () Real)
(declare-fun l_0_1_7 () Real)
(declare-fun l_0_1_13 () Real)
(declare-fun l_0_1_1 () Real)
(declare-fun l_0_1_9 () Real)
(declare-fun l_0_1_8 () Real)
(declare-fun l_0_1_3 () Real)
(declare-fun l_0_1_2 () Real)
(declare-fun l_0_1_15 () Real)
(declare-fun l_0_1_14 () Real)
(declare-fun l_0_1_6 () Real)
(declare-fun l_0_1_5 () Real)
(declare-fun l_0_1_4 () Real)
(declare-fun l_0_1_18 () Real)
(declare-fun l_0_1_17 () Real)
(declare-fun l_0_1_16 () Real)
(declare-fun l_0_1_12 () Real)
(declare-fun l_0_1_11 () Real)
(declare-fun l_0_1_10 () Real)
(declare-fun l_0_2_9 () Real)
(declare-fun l_0_2_8 () Real)
(declare-fun l_0_2_7 () Real)
(declare-fun l_0_2_3 () Real)
(declare-fun l_0_2_2 () Real)
(declare-fun l_0_2_15 () Real)
(declare-fun l_0_2_14 () Real)
(declare-fun l_0_2_1 () Real)
(declare-fun l_0_2_5 () Real)
(declare-fun l_0_2_4 () Real)
(declare-fun l_0_2_17 () Real)
(declare-fun l_0_2_16 () Real)
(declare-fun l_0_2_11 () Real)
(declare-fun l_0_2_10 () Real)
(declare-fun l_0_2_6 () Real)
(declare-fun l_0_2_18 () Real)
(declare-fun l_0_2_12 () Real)
(declare-fun l_0_2_13 () Real)
(assert
 (let ((?x66 (* l_0_0_9 l_0_0_9)))
 (let ((?x64 (* l_0_0_8 l_0_0_8)))
 (let ((?x55 (* l_0_0_1 l_0_0_1)))
 (let ((?x56 (+ _a_0_ ?x55)))
 (let ((?x63 (- (- ?x56 (* (* 1.0 l_0_0_2) l_0_0_2)) (* (* 1.0 l_0_0_3) l_0_0_3))))
 (= (- (- ?x63 ?x64) ?x66) 0.0)))))))
(assert
 (let ((?x109 (* l_0_0_12 l_0_0_12)))
 (let ((?x107 (* l_0_0_11 l_0_0_11)))
 (let ((?x108 (- (- (- _a_1_ (* l_0_0_1 l_0_0_1)) (* l_0_0_10 l_0_0_10)) ?x107)))
 (let ((?x116 (- (- (- ?x108 ?x109) (* (* 1.0 l_0_0_4) l_0_0_4)) (* (* 1.0 l_0_0_5) l_0_0_5))))
 (= (- ?x116 (* (* 1.0 l_0_0_6) l_0_0_6)) 0.0))))))
(assert
 (let ((?x149 (+ (- (* (* (- 1.0) l_0_0_1) l_0_0_1) (* l_0_0_7 l_0_0_7)) 1.0)))
 (= ?x149 0.0)))
(assert
 (let ((?x156 (* (- 2.0) l_0_0_1)))
 (let ((?x157 (* ?x156 l_0_0_2)))
 (= (- ?x157 (* (* 2.0 l_0_0_7) l_0_0_8)) 0.0))))
(assert
 (let ((?x156 (* (- 2.0) l_0_0_1)))
 (let ((?x174 (* ?x156 l_0_0_4)))
 (= (- ?x174 (* (* 2.0 l_0_0_10) l_0_0_7)) 0.0))))
(assert
 (let ((?x199 (* (* 2.0 l_0_0_3) l_0_0_5)))
 (let ((?x196 (* (* 2.0 l_0_0_2) l_0_0_4)))
 (let ((?x194 (- (* (* (- 2.0) l_0_0_10) l_0_0_8) (* (* 2.0 l_0_0_11) l_0_0_9))))
 (= (- (- ?x194 ?x196) ?x199) 0.0)))))
(assert
 (= (* (* 2.0 l_0_0_1) l_0_0_2) 0.0))
(assert
 (= (* (* 2.0 l_0_0_1) l_0_0_4) 0.0))
(assert
 (= (+ (* l_0_0_2 l_0_0_2) (* l_0_0_3 l_0_0_3)) 0.0))
(assert
 (let ((?x199 (* (* 2.0 l_0_0_3) l_0_0_5)))
 (let ((?x196 (* (* 2.0 l_0_0_2) l_0_0_4)))
 (= (+ ?x196 ?x199) 0.0))))
(assert
 (let ((?x140 (* l_0_0_6 l_0_0_6)))
 (let ((?x136 (* l_0_0_5 l_0_0_5)))
 (let ((?x132 (* l_0_0_4 l_0_0_4)))
 (let ((?x242 (+ (+ (- (* (- l_0_0_2) l_0_0_2) (* l_0_0_3 l_0_0_3)) ?x132) ?x136)))
 (= (+ ?x242 ?x140) 0.0))))))
(assert
 (let ((?x156 (* (- 2.0) l_0_0_1)))
 (let ((?x157 (* ?x156 l_0_0_2)))
 (= ?x157 0.0))))
(assert
 (let ((?x156 (* (- 2.0) l_0_0_1)))
 (let ((?x174 (* ?x156 l_0_0_4)))
 (= ?x174 0.0))))
(assert
 (let ((?x199 (* (* 2.0 l_0_0_3) l_0_0_5)))
 (= (- (* (* (- 2.0) l_0_0_2) l_0_0_4) ?x199) 0.0)))
(assert
 (let ((?x140 (* l_0_0_6 l_0_0_6)))
 (= (- (- (* (- l_0_0_4) l_0_0_4) (* l_0_0_5 l_0_0_5)) ?x140) 0.0)))
(assert
 (>= l_0_0_1 0.0))
(assert
 (>= l_0_0_3 0.0))
(assert
 (>= l_0_0_6 0.0))
(assert
 (>= l_0_0_7 0.0))
(assert
 (>= l_0_0_9 0.0))
(assert
 (>= l_0_0_12 0.0))
(assert
 (let ((?x280 (+ (- (* (* (- 1.0) l_0_1_1) l_0_1_1) (* l_0_1_13 l_0_1_13)) (* 1.0 (* l_0_1_7 l_0_1_7)))))
 (= (+ ?x280 (/ 15.0 4.0)) 0.0)))
(assert
 (let ((?x278 (* l_0_1_7 l_0_1_7)))
 (let ((?x297 (* l_0_1_15 l_0_1_15)))
 (let ((?x298 (- (- (* (* (- _a_0_) l_0_1_1) l_0_1_1) (* l_0_1_14 l_0_1_14)) ?x297)))
 (let ((?x304 (- (- ?x298 (* (* 1.0 l_0_1_2) l_0_1_2)) (* (* 1.0 l_0_1_3) l_0_1_3))))
 (let ((?x311 (+ (+ (- ?x304 ?x278) (* 1.0 (* l_0_1_8 l_0_1_8))) (* 1.0 (* l_0_1_9 l_0_1_9)))))
 (= (+ ?x311 1.0) 0.0)))))))
(assert
 (let ((?x278 (* l_0_1_7 l_0_1_7)))
 (let ((?x353 (* l_0_1_18 l_0_1_18)))
 (let ((?x351 (* l_0_1_17 l_0_1_17)))
 (let ((?x349 (* l_0_1_16 l_0_1_16)))
 (let ((?x342 (+ (* (* (- _a_1_) l_0_1_1) l_0_1_1) (* 1.0 (* l_0_1_10 l_0_1_10)))))
 (let ((?x348 (+ (+ ?x342 (* 1.0 (* l_0_1_11 l_0_1_11))) (* 1.0 (* l_0_1_12 l_0_1_12)))))
 (let ((?x357 (- (- (- (- ?x348 ?x349) ?x351) ?x353) (* (* 1.0 l_0_1_4) l_0_1_4))))
 (let ((?x363 (- (- ?x357 (* (* 1.0 l_0_1_5) l_0_1_5)) (* (* 1.0 l_0_1_6) l_0_1_6))))
 (= (+ (- ?x363 ?x278) 1.0) 0.0))))))))))
(assert
 (let ((?x401 (* 2.0 l_0_1_10)))
 (let ((?x402 (* ?x401 l_0_1_7)))
 (let ((?x406 (- (+ (* (* (- 2.0) l_0_1_1) l_0_1_4) ?x402) (* (* 2.0 l_0_1_13) l_0_1_16))))
 (= (- ?x406 4.0) 0.0)))))
(assert
 (let ((?x433 (* (* 2.0 l_0_1_7) l_0_1_8)))
 (= (- (* (* (* (- 2.0) _a_0_) l_0_1_1) l_0_1_2) ?x433) 0.0)))
(assert
 (let ((?x401 (* 2.0 l_0_1_10)))
 (let ((?x402 (* ?x401 l_0_1_7)))
 (= (- (* (* (* (- 2.0) _a_0_) l_0_1_1) l_0_1_4) ?x402) 0.0))))
(assert
 (let ((?x309 (* l_0_1_9 l_0_1_9)))
 (let ((?x306 (* l_0_1_8 l_0_1_8)))
 (let ((?x462 (- (* (- _a_0_) (+ (* l_0_1_2 l_0_1_2) (* l_0_1_3 l_0_1_3))) ?x306)))
 (= (- ?x462 ?x309) 0.0)))))
(assert
 (let ((?x485 (* (* 2.0 l_0_1_11) l_0_1_9)))
 (let ((?x401 (* 2.0 l_0_1_10)))
 (let ((?x482 (* ?x401 l_0_1_8)))
 (let ((?x479 (* (* 2.0 l_0_1_3) l_0_1_5)))
 (let ((?x477 (* (* 2.0 l_0_1_2) l_0_1_4)))
 (let ((?x480 (+ ?x477 ?x479)))
 (let ((?x289 (- _a_0_)))
 (= (- (- (* ?x289 ?x480) ?x482) ?x485) 0.0)))))))))
(assert
 (let ((?x309 (* l_0_1_9 l_0_1_9)))
 (let ((?x306 (* l_0_1_8 l_0_1_8)))
 (let ((?x346 (* l_0_1_12 l_0_1_12)))
 (let ((?x343 (* l_0_1_11 l_0_1_11)))
 (let ((?x340 (* l_0_1_10 l_0_1_10)))
 (let ((?x388 (* l_0_1_6 l_0_1_6)))
 (let ((?x512 (+ (+ (* l_0_1_4 l_0_1_4) (* l_0_1_5 l_0_1_5)) ?x388)))
 (let ((?x289 (- _a_0_)))
 (let ((?x515 (- (* ?x289 ?x512) (* _a_1_ (+ (* l_0_1_2 l_0_1_2) (* l_0_1_3 l_0_1_3))))))
 (= (- (- (- (- (- ?x515 ?x340) ?x343) ?x346) ?x306) ?x309) 0.0)))))))))))
(assert
 (let ((?x433 (* (* 2.0 l_0_1_7) l_0_1_8)))
 (= (- (* (* (* (- 2.0) _a_1_) l_0_1_1) l_0_1_2) ?x433) 0.0)))
(assert
 (let ((?x401 (* 2.0 l_0_1_10)))
 (let ((?x402 (* ?x401 l_0_1_7)))
 (= (- (* (* (* (- 2.0) _a_1_) l_0_1_1) l_0_1_4) ?x402) 0.0))))
(assert
 (let ((?x485 (* (* 2.0 l_0_1_11) l_0_1_9)))
 (let ((?x401 (* 2.0 l_0_1_10)))
 (let ((?x482 (* ?x401 l_0_1_8)))
 (let ((?x479 (* (* 2.0 l_0_1_3) l_0_1_5)))
 (let ((?x477 (* (* 2.0 l_0_1_2) l_0_1_4)))
 (let ((?x480 (+ ?x477 ?x479)))
 (let ((?x333 (- _a_1_)))
 (= (- (- (* ?x333 ?x480) ?x482) ?x485) 0.0)))))))))
(assert
 (let ((?x346 (* l_0_1_12 l_0_1_12)))
 (let ((?x343 (* l_0_1_11 l_0_1_11)))
 (let ((?x340 (* l_0_1_10 l_0_1_10)))
 (let ((?x388 (* l_0_1_6 l_0_1_6)))
 (let ((?x512 (+ (+ (* l_0_1_4 l_0_1_4) (* l_0_1_5 l_0_1_5)) ?x388)))
 (let ((?x333 (- _a_1_)))
 (= (- (- (- (* ?x333 ?x512) ?x340) ?x343) ?x346) 0.0))))))))
(assert
 (let ((?x433 (* (* 2.0 l_0_1_7) l_0_1_8)))
 (let ((?x616 (- (* (* (- 2.0) l_0_1_1) l_0_1_2) (* (* 2.0 l_0_1_13) l_0_1_14))))
 (= (+ ?x616 ?x433) 0.0))))
(assert
 (let ((?x479 (* (* 2.0 l_0_1_3) l_0_1_5)))
 (let ((?x477 (* (* 2.0 l_0_1_2) l_0_1_4)))
 (let ((?x485 (* (* 2.0 l_0_1_11) l_0_1_9)))
 (let ((?x401 (* 2.0 l_0_1_10)))
 (let ((?x482 (* ?x401 l_0_1_8)))
 (let ((?x635 (- (- (+ ?x482 ?x485) (* (* 2.0 l_0_1_14) l_0_1_16)) (* (* 2.0 l_0_1_15) l_0_1_17))))
 (= (- (- ?x635 ?x477) ?x479) 0.0))))))))
(assert
 (>= l_0_1_1 0.0))
(assert
 (>= l_0_1_3 0.0))
(assert
 (>= l_0_1_6 0.0))
(assert
 (>= l_0_1_7 0.0))
(assert
 (>= l_0_1_9 0.0))
(assert
 (>= l_0_1_12 0.0))
(assert
 (>= l_0_1_13 0.0))
(assert
 (>= l_0_1_15 0.0))
(assert
 (>= l_0_1_18 0.0))
(assert
 (let ((?x689 (* l_0_2_7 l_0_2_7)))
 (let ((?x681 (* l_0_2_15 l_0_2_15)))
 (let ((?x679 (* l_0_2_14 l_0_2_14)))
 (let ((?x677 (* (/ 81.0 1000000.0) _a_1_)))
 (let ((?x678 (+ (+ (* (* (- _a_0_) l_0_2_1) l_0_2_1) (* (/ 81.0 100.0) _a_0_)) ?x677)))
 (let ((?x688 (- (- (- (- ?x678 ?x679) ?x681) (* (* 1.0 l_0_2_2) l_0_2_2)) (* (* 1.0 l_0_2_3) l_0_2_3))))
 (let ((?x696 (- (- (+ ?x688 ?x689) (* (* 1.0 l_0_2_8) l_0_2_8)) (* (* 1.0 l_0_2_9) l_0_2_9))))
 (= ?x696 0.0)))))))))
(assert
 (let ((?x746 (* (* 2.0 l_0_2_3) l_0_2_5)))
 (let ((?x743 (* (* 2.0 l_0_2_2) l_0_2_4)))
 (let ((?x734 (* (* 2.0 l_0_2_11) l_0_2_9)))
 (let ((?x730 (* 2.0 l_0_2_10)))
 (let ((?x731 (* ?x730 l_0_2_8)))
 (let ((?x728 (* (/ 81.0 5000.0) _a_1_)))
 (let ((?x726 (* (- (/ 81.0 5000.0)) _a_0_)))
 (let ((?x729 (+ ?x726 ?x728)))
 (let ((?x741 (- (- (- (- ?x729 ?x731) ?x734) (* (* 2.0 l_0_2_14) l_0_2_16)) (* (* 2.0 l_0_2_15) l_0_2_17))))
 (= (- (- ?x741 ?x743) ?x746) 0.0)))))))))))
(assert
 (let ((?x689 (* l_0_2_7 l_0_2_7)))
 (let ((?x808 (* l_0_2_18 l_0_2_18)))
 (let ((?x806 (* l_0_2_17 l_0_2_17)))
 (let ((?x804 (* l_0_2_16 l_0_2_16)))
 (let ((?x793 (* (/ 81.0 100.0) _a_1_)))
 (let ((?x797 (- (+ (- (* (/ 81.0 1000000.0) _a_0_) (* (* _a_1_ l_0_2_1) l_0_2_1)) ?x793) (* (* 1.0 l_0_2_10) l_0_2_10))))
 (let ((?x803 (- (- ?x797 (* (* 1.0 l_0_2_11) l_0_2_11)) (* (* 1.0 l_0_2_12) l_0_2_12))))
 (let ((?x812 (- (- (- (- ?x803 ?x804) ?x806) ?x808) (* (* 1.0 l_0_2_4) l_0_2_4))))
 (let ((?x818 (- (- ?x812 (* (* 1.0 l_0_2_5) l_0_2_5)) (* (* 1.0 l_0_2_6) l_0_2_6))))
 (= (+ ?x818 ?x689) 0.0)))))))))))
(assert
 (let ((?x866 (- (- (* (* (- 1.0) l_0_2_1) l_0_2_1) (* l_0_2_13 l_0_2_13)) (* (* 1.0 l_0_2_7) l_0_2_7))))
 (= (+ ?x866 1.0) 0.0)))
(assert
 (let ((?x882 (* (* 2.0 l_0_2_7) l_0_2_8)))
 (= (+ (* (* (* (- 2.0) _a_0_) l_0_2_1) l_0_2_2) ?x882) 0.0)))
(assert
 (let ((?x730 (* 2.0 l_0_2_10)))
 (let ((?x892 (* ?x730 l_0_2_7)))
 (= (+ (* (* (* (- 2.0) _a_0_) l_0_2_1) l_0_2_4) ?x892) 0.0))))
(assert
 (let ((?x720 (* l_0_2_9 l_0_2_9)))
 (let ((?x716 (* l_0_2_8 l_0_2_8)))
 (let ((?x901 (+ (* (- _a_0_) (+ (* l_0_2_2 l_0_2_2) (* l_0_2_3 l_0_2_3))) ?x716)))
 (= (+ ?x901 ?x720) 0.0)))))
(assert
 (let ((?x734 (* (* 2.0 l_0_2_11) l_0_2_9)))
 (let ((?x730 (* 2.0 l_0_2_10)))
 (let ((?x731 (* ?x730 l_0_2_8)))
 (let ((?x746 (* (* 2.0 l_0_2_3) l_0_2_5)))
 (let ((?x743 (* (* 2.0 l_0_2_2) l_0_2_4)))
 (let ((?x915 (+ ?x743 ?x746)))
 (let ((?x289 (- _a_0_)))
 (= (+ (+ (* ?x289 ?x915) ?x731) ?x734) 0.0)))))))))
(assert
 (let ((?x720 (* l_0_2_9 l_0_2_9)))
 (let ((?x716 (* l_0_2_8 l_0_2_8)))
 (let ((?x833 (* l_0_2_12 l_0_2_12)))
 (let ((?x829 (* l_0_2_11 l_0_2_11)))
 (let ((?x825 (* l_0_2_10 l_0_2_10)))
 (let ((?x854 (* l_0_2_6 l_0_2_6)))
 (let ((?x928 (+ (+ (* l_0_2_4 l_0_2_4) (* l_0_2_5 l_0_2_5)) ?x854)))
 (let ((?x289 (- _a_0_)))
 (let ((?x931 (- (* ?x289 ?x928) (* _a_1_ (+ (* l_0_2_2 l_0_2_2) (* l_0_2_3 l_0_2_3))))))
 (= (+ (+ (+ (+ (+ ?x931 ?x825) ?x829) ?x833) ?x716) ?x720) 0.0)))))))))))
(assert
 (let ((?x882 (* (* 2.0 l_0_2_7) l_0_2_8)))
 (= (+ (* (* (* (- 2.0) _a_1_) l_0_2_1) l_0_2_2) ?x882) 0.0)))
(assert
 (let ((?x730 (* 2.0 l_0_2_10)))
 (let ((?x892 (* ?x730 l_0_2_7)))
 (= (+ (* (* (* (- 2.0) _a_1_) l_0_2_1) l_0_2_4) ?x892) 0.0))))
(assert
 (let ((?x734 (* (* 2.0 l_0_2_11) l_0_2_9)))
 (let ((?x730 (* 2.0 l_0_2_10)))
 (let ((?x731 (* ?x730 l_0_2_8)))
 (let ((?x746 (* (* 2.0 l_0_2_3) l_0_2_5)))
 (let ((?x743 (* (* 2.0 l_0_2_2) l_0_2_4)))
 (let ((?x915 (+ ?x743 ?x746)))
 (let ((?x333 (- _a_1_)))
 (= (+ (+ (* ?x333 ?x915) ?x731) ?x734) 0.0)))))))))
(assert
 (let ((?x833 (* l_0_2_12 l_0_2_12)))
 (let ((?x829 (* l_0_2_11 l_0_2_11)))
 (let ((?x825 (* l_0_2_10 l_0_2_10)))
 (let ((?x854 (* l_0_2_6 l_0_2_6)))
 (let ((?x928 (+ (+ (* l_0_2_4 l_0_2_4) (* l_0_2_5 l_0_2_5)) ?x854)))
 (let ((?x333 (- _a_1_)))
 (= (+ (+ (+ (* ?x333 ?x928) ?x825) ?x829) ?x833) 0.0))))))))
(assert
 (let ((?x882 (* (* 2.0 l_0_2_7) l_0_2_8)))
 (let ((?x1007 (- (* (* (- 2.0) l_0_2_1) l_0_2_2) (* (* 2.0 l_0_2_13) l_0_2_14))))
 (= (- ?x1007 ?x882) 0.0))))
(assert
 (let ((?x730 (* 2.0 l_0_2_10)))
 (let ((?x892 (* ?x730 l_0_2_7)))
 (let ((?x1028 (- (- (* (* (- 2.0) l_0_2_1) l_0_2_4) ?x892) (* (* 2.0 l_0_2_13) l_0_2_16))))
 (= ?x1028 0.0)))))
(assert
 (>= l_0_2_1 0.0))
(assert
 (>= l_0_2_3 0.0))
(assert
 (>= l_0_2_6 0.0))
(assert
 (>= l_0_2_7 0.0))
(assert
 (>= l_0_2_9 0.0))
(assert
 (>= l_0_2_12 0.0))
(assert
 (>= l_0_2_13 0.0))
(assert
 (>= l_0_2_15 0.0))
(assert
 (>= l_0_2_18 0.0))
(check-sat)
(get-model)